0 235 44
1 433 445
2 22 396
3 118 374
4 416 776
5 591 605
6 29 100
7 46 576
8 599 113
9 587 444
10 465 560
11 412 327
12 793 628
13 205 682
14 682 357
15 349 12
16 635 736
17 661 650
18 584 795
19 261 738
